qbf_easy_train/easy_404_SAT.qdimacs
p cnf 21 49
a 16 3 12 0
e 1 2 4 5 6 7 8 9 10 11 13 14 15 17 18 19 20 21 0
-4 2 0
-4 -3 0
-2 3 4 0
-4 5 -6 0
4 -5 -6 0
-4 -5 6 0
4 5 6 0
-7 -6 0
-7 2 0
6 -2 7 0
-8 4 0
-8 7 0
-4 -7 8 0
1 -8 -9 0
-1 8 -9 0
1 8 9 0
-1 -8 9 0
-11 10 0
-11 -1 0
-10 1 11 0
13 11 0
13 -12 0
-11 12 -13 0
14 15 -16 0
-14 -15 -16 0
14 -15 16 0
-14 15 16 0
10 -4 -17 0
-10 4 -17 0
10 4 17 0
-10 -4 17 0
-18 -17 0
-18 -17 0
17 18 0
-19 16 0
-19 -18 0
-16 18 19 0
-20 -13 0
-20 -19 0
13 19 20 0
9 -20 -21 0
-9 20 -21 0
9 20 21 0
-9 -20 21 0
5 14 -3 20 -7 0
-12 -20 13 0
-6 -19 -20 0
-10 -16 4 6 18 -9 14 0
21 0
