sat_easy_train/easy_404_SAT.dimacs
p cnf 110 363
-3 -1 0
-3 2 0
1 -2 3 0
-8 -6 0
-8 -7 0
6 7 8 0
9 -5 0
9 -8 0
5 8 -9 0
11 -6 0
11 -10 0
6 10 -11 0
-11 2 -12 0
11 -2 -12 0
-11 -2 12 0
11 2 12 0
13 -9 0
13 12 0
9 -12 -13 0
4 -13 -14 0
-4 13 -14 0
4 13 14 0
-4 -13 14 0
-15 -11 0
-15 11 0
17 16 0
17 16 0
-16 -17 0
16 17 -18 0
-16 -17 -18 0
16 -17 18 0
-16 17 18 0
-19 15 0
-19 18 0
-15 -18 19 0
20 21 -22 0
-20 -21 -22 0
20 -21 22 0
-20 21 22 0
23 19 0
23 -22 0
-19 22 -23 0
24 -14 0
24 23 0
14 -23 -24 0
27 -25 0
27 -26 0
25 26 -27 0
-28 -10 0
-28 -12 0
10 12 28 0
-29 22 0
-29 28 0
-22 -28 29 0
27 29 -30 0
-27 -29 -30 0
27 -29 30 0
-27 29 30 0
-31 -6 0
-31 21 0
6 -21 31 0
30 -31 -32 0
-30 31 -32 0
30 31 32 0
-30 -31 32 0
-33 24 0
-33 32 0
-24 -32 33 0
34 3 0
34 33 0
-3 -33 -34 0
-35 10 0
-35 -11 0
-10 11 35 0
-36 35 0
-36 -5 0
-35 5 36 0
-37 -38 -39 0
37 38 -39 0
-37 38 39 0
37 -38 39 0
-40 -5 0
-40 11 0
5 -11 40 0
40 -20 -41 0
-40 20 -41 0
40 20 41 0
-40 -20 41 0
39 41 -42 0
-39 -41 -42 0
39 -41 42 0
-39 41 42 0
43 -16 0
43 11 0
16 -11 -43 0
44 -43 0
44 -18 0
43 18 -44 0
-42 44 -45 0
42 -44 -45 0
-42 -44 45 0
42 44 45 0
36 -45 -46 0
-36 45 -46 0
36 45 46 0
-36 -45 46 0
49 -47 0
49 -48 0
47 48 -49 0
-50 -49 0
-50 -20 0
49 20 50 0
17 9 -51 0
-17 -9 -51 0
17 -9 51 0
-17 9 51 0
-40 -51 -52 0
40 51 -52 0
-40 51 52 0
40 -51 52 0
-40 -52 -53 0
40 52 -53 0
-40 52 53 0
40 -52 53 0
12 -25 -54 0
-12 25 -54 0
12 25 54 0
-12 -25 54 0
55 53 0
55 54 0
-53 -54 -55 0
56 50 0
56 -55 0
-50 55 -56 0
57 46 0
57 56 0
-46 -56 -57 0
-58 -21 0
-58 -2 0
21 2 58 0
58 -54 -59 0
-58 54 -59 0
58 54 59 0
-58 -54 59 0
40 -49 -60 0
-40 49 -60 0
40 49 60 0
-40 -49 60 0
-61 8 0
-61 60 0
-8 -60 61 0
38 -37 -62 0
-38 37 -62 0
38 37 62 0
-38 -37 62 0
-63 -61 0
-63 -62 0
61 62 63 0
59 -63 -64 0
-59 63 -64 0
59 63 64 0
-59 -63 64 0
-65 47 0
-65 -38 0
-47 38 65 0
-66 20 0
-66 -65 0
-20 65 66 0
11 4 -67 0
-11 -4 -67 0
11 -4 67 0
-11 4 67 0
68 -67 0
68 -15 0
67 15 -68 0
69 -22 0
69 68 0
22 -68 -69 0
70 66 0
70 -69 0
-66 69 -70 0
-71 64 0
-71 70 0
-64 -70 71 0
72 -16 0
72 -29 0
16 29 -72 0
73 -60 0
73 -18 0
60 18 -73 0
-74 -72 0
-74 73 0
72 -73 74 0
75 -21 0
75 -35 0
21 35 -75 0
76 12 0
76 6 0
-12 -6 -76 0
-75 76 -77 0
75 -76 -77 0
-75 -76 77 0
75 76 77 0
-78 74 0
-78 -77 0
-74 77 78 0
-71 -78 -79 0
71 78 -79 0
-71 78 79 0
71 -78 79 0
-80 -57 0
-80 79 0
57 -79 80 0
81 -34 0
81 -80 0
34 80 -81 0
-82 20 0
-82 -68 0
-20 68 82 0
83 -16 0
83 27 0
16 -27 -83 0
-83 -51 -84 0
83 51 -84 0
-83 51 84 0
83 -51 84 0
48 -25 -85 0
-48 25 -85 0
48 25 85 0
-48 -25 85 0
-86 -84 0
-86 -85 0
84 85 86 0
87 48 0
87 -47 0
-48 47 -87 0
-21 87 -88 0
21 -87 -88 0
-21 -87 88 0
21 87 88 0
-11 35 -89 0
11 -35 -89 0
-11 -35 89 0
11 35 89 0
-90 -89 0
-90 -51 0
89 51 90 0
-91 88 0
-91 -90 0
-88 90 91 0
-92 86 0
-92 91 0
-86 -91 92 0
-93 82 0
-93 -92 0
-82 92 93 0
94 -16 0
94 -60 0
16 60 -94 0
95 31 0
95 94 0
-31 -94 -95 0
16 52 -96 0
-16 -52 -96 0
16 -52 96 0
-16 52 96 0
-97 -49 0
-97 30 0
49 -30 97 0
-98 -96 0
-98 -97 0
96 97 98 0
-95 98 -99 0
95 -98 -99 0
-95 -98 99 0
95 98 99 0
93 99 -100 0
-93 -99 -100 0
93 -99 100 0
-93 99 100 0
-101 15 0
-101 -7 0
-15 7 101 0
100 101 -102 0
-100 -101 -102 0
100 -101 102 0
-100 101 102 0
81 102 -103 0
-81 -102 -103 0
81 -102 103 0
-81 102 103 0
-16 -37 -104 0
16 37 -104 0
-16 37 104 0
16 -37 104 0
-105 26 0
-105 25 0
-26 -25 105 0
19 105 -106 0
-19 -105 -106 0
19 -105 106 0
-19 105 106 0
107 11 0
107 -25 0
-11 25 -107 0
-106 -107 -108 0
106 107 -108 0
-106 107 108 0
106 -107 108 0
-109 104 0
-109 -108 0
-104 108 109 0
-110 103 0
-110 109 0
-103 -109 110 0
-40 -5 -58 97 61 7 0
-36 -30 -57 0
73 -27 0
-17 -19 -33 -2 8 0
107 12 -91 0
-11 68 53 58 45 0
-54 -76 74 91 0
40 102 -3 105 -67 -33 0
-91 -110 94 19 0
85 -50 105 0
31 71 -91 -12 47 -53 0
42 -84 94 -59 -39 0
-21 -12 0
-3 30 -65 -39 0
-29 -33 6 94 -107 0
-47 -104 0
-56 -43 1 0
45 85 -78 47 101 0
-2 94 33 0
-40 -91 -15 94 -30 -8 0
19 -34 -9 31 0
76 -27 16 110 -5 -87 0
6 -30 0
-87 61 101 -102 -62 0
-100 15 104 56 0
-48 -58 50 -66 -33 0
-49 -98 78 94 20 96 0
38 1 -63 -43 0
-67 -47 90 -58 7 0
-43 11 92 0
17 27 -22 -90 77 67 0
-76 89 -61 55 -28 0
39 100 5 97 0
-1 109 0
-100 -25 -66 0
20 105 -41 0
43 79 -8 87 34 0
-94 -92 0
84 -68 -110 57 7 106 0
18 -7 0
-29 57 81 -74 -78 101 0
-22 110 -15 4 -12 27 0
-14 -4 53 0
-8 -63 16 0
-19 55 12 -51 -105 0
12 50 0
14 5 46 97 -51 37 0
110 0
